95-2-21-72-75-23-67-39-12-76-29-79-33-81-9-65-71-51-30-90-63-64-49-36-47-48-46-8-45-84-5-6-94-96-59-97-13-58-26-74-56-4-25-55-54-24-80-68-77-1-70
28-27-69-52-82-19-11-62-31-88-7-18-83-61-16-86-38-14-44-85-98-99-92-87-42-43-15-57-41-22-73-40-53-3-78-34-35-66-20-32-10-50-37-93-100-91-17-60-89